words_hard_train/4924.qaiger
aag 93 24 0 1 69
2
4
8
10
14
16
24
26
32
34
40
44
48
52
56
60
64
76
90
98
112
118
126
160
186
6 3 4
12 9 11
18 15 17
20 12 18
22 6 20
28 25 27
30 22 28
36 32 35
38 37 35
42 39 40
46 42 44
50 47 49
54 50 53
58 55 56
62 59 61
66 63 64
68 58 60
70 66 69
72 71 5
74 54 57
78 75 76
80 78 59
82 80 10
84 73 83
86 46 48
88 87 51
92 89 90
94 93 27
96 43 45
100 97 98
102 100 47
104 103 15
106 95 105
108 38 41
110 109 43
114 110 112
116 114 8
120 118 2
122 120 33
124 33 34
128 125 126
130 122 128
132 131 25
134 133 37
136 123 129
138 134 137
140 115 9
142 138 141
144 117 143
146 102 14
148 144 147
150 106 149
152 92 26
154 151 153
156 51 52
158 157 55
162 159 160
164 162 16
166 154 165
168 163 17
170 167 169
172 81 11
174 170 173
176 84 175
178 70 4
180 177 179
182 30 180
184 31 181
186 183 185
i0 1 x2[0]
i1 1 x2[7]
i2 1 x2[2]
i3 1 x2[6]
i4 1 x2[3]
i5 1 x2[5]
i6 1 x2[1]
i7 1 x2[4]
i8 2 y1[0]
i9 2 y1[1]
i10 2 y1[2]
i11 2 y1[3]
i12 2 y1[4]
i13 2 y1[5]
i14 2 y1[6]
i15 2 y1[7]
i16 2 y2[7]
i17 2 y2[6]
i18 2 y2[4]
i19 2 y2[3]
i20 2 y2[2]
i21 2 y2[0]
i22 2 y2[1]
i23 2 y2[5]
o0 bv[0]
c
simplified
  <=
    unary minus
      1 x2
    and
      2 y2
      subtract
        2 y1
        205
