words_hard_train/4924.qaiger.qdimacs
p cnf 93 208
a 1 2 4 5 7 8 12 13 0
e 3 6 9 10 11 14 15 16 17 18 19 20 21 22 23 24 25 26 27 28 29 30 31 32 33 34 35 36 37 38 39 40 41 42 43 44 45 46 47 48 49 50 51 52 53 54 55 56 57 58 59 60 61 62 63 64 65 66 67 68 69 70 71 72 73 74 75 76 77 78 79 80 81 82 83 84 85 86 87 88 89 90 91 92 93 0
1 -2 3 0
-1 -3 0
2 -3 0
4 5 6 0
-4 -6 0
-5 -6 0
7 8 9 0
-7 -9 0
-8 -9 0
-6 -9 10 0
6 -10 0
9 -10 0
-3 -10 11 0
3 -11 0
10 -11 0
12 13 14 0
-12 -14 0
-13 -14 0
-11 -14 15 0
11 -15 0
14 -15 0
-16 17 18 0
16 -18 0
-17 -18 0
18 17 19 0
-18 -19 0
-17 -19 0
19 -20 21 0
-19 -21 0
20 -21 0
-21 -22 23 0
21 -23 0
22 -23 0
23 24 25 0
-23 -25 0
-24 -25 0
-25 26 27 0
25 -27 0
-26 -27 0
27 -28 29 0
-27 -29 0
28 -29 0
29 30 31 0
-29 -31 0
-30 -31 0
31 -32 33 0
-31 -33 0
32 -33 0
-29 -30 34 0
29 -34 0
30 -34 0
-33 34 35 0
33 -35 0
-34 -35 0
35 2 36 0
-35 -36 0
-2 -36 0
-27 28 37 0
27 -37 0
-28 -37 0
37 -38 39 0
-37 -39 0
38 -39 0
-39 29 40 0
39 -40 0
-29 -40 0
-40 -5 41 0
40 -41 0
5 -41 0
36 41 42 0
-36 -42 0
-41 -42 0
-23 -24 43 0
23 -43 0
24 -43 0
43 25 44 0
-43 -44 0
-25 -44 0
44 -45 46 0
-44 -46 0
45 -46 0
46 13 47 0
-46 -47 0
-13 -47 0
21 22 48 0
-21 -48 0
-22 -48 0
48 -49 50 0
-48 -50 0
49 -50 0
-50 23 51 0
50 -51 0
-23 -51 0
51 7 52 0
-51 -52 0
-7 -52 0
47 52 53 0
-47 -53 0
-52 -53 0
-19 20 54 0
19 -54 0
-20 -54 0
54 21 55 0
-54 -55 0
-21 -55 0
-55 -56 57 0
55 -57 0
56 -57 0
-57 -4 58 0
57 -58 0
4 -58 0
-59 -1 60 0
59 -60 0
1 -60 0
-60 16 61 0
60 -61 0
-16 -61 0
16 -17 62 0
-16 -62 0
17 -62 0
62 -63 64 0
-62 -64 0
63 -64 0
-61 -64 65 0
61 -65 0
64 -65 0
65 12 66 0
-65 -66 0
-12 -66 0
66 18 67 0
-66 -67 0
-18 -67 0
61 64 68 0
-61 -68 0
-64 -68 0
-67 68 69 0
67 -69 0
-68 -69 0
57 4 70 0
-57 -70 0
-4 -70 0
-69 70 71 0
69 -71 0
-70 -71 0
58 71 72 0
-58 -72 0
-71 -72 0
-51 -7 73 0
51 -73 0
7 -73 0
-72 73 74 0
72 -74 0
-73 -74 0
-53 74 75 0
53 -75 0
-74 -75 0
-46 -13 76 0
46 -76 0
13 -76 0
75 76 77 0
-75 -77 0
-76 -77 0
25 -26 78 0
-25 -78 0
26 -78 0
78 27 79 0
-78 -79 0
-27 -79 0
79 -80 81 0
-79 -81 0
80 -81 0
-81 -8 82 0
81 -82 0
8 -82 0
-77 82 83 0
77 -83 0
-82 -83 0
81 8 84 0
-81 -84 0
-8 -84 0
83 84 85 0
-83 -85 0
-84 -85 0
40 5 86 0
-40 -86 0
-5 -86 0
-85 86 87 0
85 -87 0
-86 -87 0
-42 87 88 0
42 -88 0
-87 -88 0
-35 -2 89 0
35 -89 0
2 -89 0
88 89 90 0
-88 -90 0
-89 -90 0
-15 -90 91 0
15 -91 0
90 -91 0
15 90 92 0
-15 -92 0
-90 -92 0
91 92 93 0
-91 -93 0
-92 -93 0
93 0
